Route #1: 17 3 44 32 40
Route #2: 9 50 18 55 25 31 39
Route #3: 12 58 10 38 11
Route #4: 35 14 59 53 7 26
Route #5: 33 1 43 41 42 64 22
Route #6: 21 61 28 62 2
Route #7: 6 63 23 56 24 49 16 51
Route #8: 30 48 47 36 60 20 37
Route #9: 5 15 57 13 54 19 8 46
Route #10: 34 52 27 29 45 4
Cost 812